17	3	3
5	8	7	57	66	48	
0	0	0	0	5	4	7	2	4	9	15	2	3	4	5	6	7	8	9	10	11	12	13	14	15	16
4	3	3	1	7	2	9	8	4	4	1	11
2	3	3	2	4	3	6	1	10	5	1	17
6	2	1	2	9	7	5	5	3	3	1	17
4	2	2	2	3	6	4	2	8	5	1	17
6	3	1	2	5	2	9	2	3	2	1	17
3	2	3	1	1	10	3	9	7	7	1	14
5	2	1	1	2	1	10	8	2	9	1	17
5	3	1	2	3	10	6	7	5	9	1	17
1	3	3	1	9	8	5	2	9	2	1	17
5	5	2	1	7	4	4	6	5	7	1	14
5	2	3	1	8	5	6	1	3	2	1	15
4	2	3	2	7	5	3	7	3	4	1	17
3	4	3	1	6	5	4	1	1	9	1	15
6	5	2	2	9	10	6	3	2	4	1	17
4	4	1	1	5	9	7	8	4	2	1	17
0	0	0	0	5	2	7	10	2	9	0
